param set_len = 24;
param target_sum = 3273598;
param values := [0] 480643 [1] 522810 [2] 272293 [3] 288638 [4] 282648 [5] 350593 [6] 503510 [7] 5217 [8] 246535 [9] 97349 [10] 262643 [11] 450450 [12] 318454 [13] 341363 [14] 502290 [15] 269113 [16] 449105 [17] 102195 [18] 139386 [19] 372486 [20] 94611 [21] 142889 [22] 219293 [23] 268568 ;
